unknown
(model
; cardinality of BoundSet is 2
(declare-sort BoundSet 0)
; rep: @uc_BoundSet_0
; rep: @uc_BoundSet_1
(declare-sort UnboundSet 0)
(define-fun IsInRedShirt ((BOUND_VARIABLE_382 BoundSet)) Bool true)
(define-fun IsPlayingTugOfWar ((BOUND_VARIABLE_382 BoundSet)) Bool true)
(define-fun WillOccur ((BOUND_VARIABLE_382 BoundSet)) Bool false)
)
